numOfMachines = 4;
numOfRobots = 2;
numOfJobs = 5;
maxOperations = 3;
operationsCount = [3,3,3,2,2];


operation = [
[<0,0,0>,<1,16,0>,<2,32,1>,<4,24,0>],
[<0,0,0>,<1,40,0>,<3,20,0>,<2,36,0>],
[<0,0,0>,<3,24,0>,<4,16,1>,<1,30,0>],
[<0,0,0>,<4,28,0>,<2,36,0>],
[<0,0,0>,<3,20,0>,<1,30,0>]
];